20
1 0 2
2 0 2
2 1 8
3 0 4
3 1 5
3 2 1
4 0 3
4 1 9
4 2 4
4 3 5
5 0 1
5 1 4
5 2 6
5 3 6
5 4 4
6 0 7
6 1 9
6 2 9
6 3 3
6 4 1
6 5 2
7 0 1
7 1 4
7 2 8
7 3 6
7 4 1
7 5 1
7 6 1
8 0 3
8 1 4
8 2 9
8 3 4
8 4 4
8 5 9
8 6 3
8 7 6
9 0 9
9 1 7
9 2 6
9 3 3
9 4 6
9 5 2
9 6 1
9 7 2
9 8 9
10 0 5
10 1 5
10 2 4
10 3 2
10 4 1
10 5 5
10 6 2
10 7 4
10 8 3
10 9 1
11 0 6
11 1 3
11 2 1
11 3 6
11 4 1
11 5 9
11 6 8
11 7 8
11 8 9
11 9 4
11 10 5
12 0 1
12 1 6
12 2 4
12 3 4
12 4 5
12 5 6
12 6 6
12 7 3
12 8 5
12 9 2
12 10 5
12 11 2
13 0 6
13 1 4
13 2 5
13 3 3
13 4 3
13 5 5
13 6 5
13 7 2
13 8 8
13 9 9
13 10 6
13 11 9
13 12 8
14 0 7
14 1 3
14 2 7
14 3 4
14 4 6
14 5 3
14 6 7
14 7 1
14 8 4
14 9 9
14 10 5
14 11 9
14 12 8
14 13 6
15 0 4
15 1 4
15 2 6
15 3 7
15 4 2
15 5 9
15 6 1
15 7 5
15 8 5
15 9 9
15 10 1
15 11 7
15 12 9
15 13 4
15 14 3
16 0 5
16 1 4
16 2 6
16 3 2
16 4 4
16 5 8
16 6 8
16 7 9
16 8 5
16 9 2
16 10 1
16 11 7
16 12 5
16 13 9
16 14 9
16 15 3
17 0 9
17 1 8
17 2 5
17 3 4
17 4 2
17 5 6
17 6 9
17 7 3
17 8 6
17 9 7
17 10 3
17 11 9
17 12 4
17 13 9
17 14 6
17 15 2
17 16 7
18 0 8
18 1 7
18 2 9
18 3 5
18 4 8
18 5 2
18 6 9
18 7 2
18 8 2
18 9 7
18 10 5
18 11 6
18 12 5
18 13 7
18 14 5
18 15 7
18 16 5
18 17 3
19 0 8
19 1 5
19 2 8
19 3 7
19 4 3
19 5 7
19 6 4
19 7 2
19 8 5
19 9 9
19 10 8
19 11 3
19 12 2
19 13 1
19 14 5
19 15 2
19 16 4
19 17 5
19 18 3
